\LP file generated from the problem `Slots selection' by the
\Xpress Builder Component Library Xpress BCL

Minimize
obj: 592 DR_(0) + 613 DR_(1) + 646 DR_(2) + 651 DR_(3) + 547 DR_(4) + 544 DR_(5) + 
613 DR_(6) + 544 DR_(7) + 588 DR_(8) + 615 DR_(9) + 549 DR_(10) + 551 DR_(11) + 
614 DR_(12) + 614 DR_(13) + 643 DR_(14) + 611 DR_(15) + 585 DR_(16) + 160 DR_(17) + 
644 DR_(18) + 550 DR_(19) + 610 DR_(20) + 545 DR_(21) + 644 DR_(22) + 158 DR_(23) + 
612 DR_(24) + 1032 DR_(25) + 1034 DR_(26) + 524 DR_(27) + 532 DR_(28) + 527 DR_(29) + 
528 DR_(30) + 530 DR_(31) + 1047 DR_(181) + 1008 DR_(182) + 1008 DR_(183) + 
502 DR_(184) + 502 DR_(185) + 1032 DR_(186) + 1032 DR_(187) + 502 DR_(188) + 
502 DR_(189) + 502 DR_(190) + 502 DR_(191) + 502 DR_(192) + 502 DR_(193) + 1034 DR_(194) + 
1034 DR_(195) + 1006 DR_(196) + 1006 DR_(197) + 502 DR_(198) + 502 DR_(199) + 
187 DR_(200) + 202 DR_(201) + 697 DR_(202) + 1158 DR_(203) + 1099 DR_(204) + 
569 DR_(205) + 1072 DR_(206) + 1061 DR_(207) + 501 DR_(208) + 501 DR_(209) + 
501 DR_(210) + 501 DR_(211) + 501 DR_(212) + 1006 DR_(213) + 501 DR_(214) + 
501 DR_(215) + 501 DR_(216) + 501 DR_(71) + 547 DR_(72) + 547 DR_(73) + 544 DR_(74) + 
544 DR_(75) + 544 DR_(76) + 544 DR_(77) + 549 DR_(78) + 549 DR_(79) + 551 DR_(80) + 
551 DR_(81) + 550 DR_(82) + 550 DR_(83) + 545 DR_(84) + 545 DR_(85) + 1032 DR_(86) + 
1032 DR_(87) + 1034 DR_(88) + 1034 DR_(89) + 1034 DR_(90) + 1034 DR_(91) + 524 DR_(92) + 
524 DR_(93) + 532 DR_(94) + 532 DR_(95) + 527 DR_(96) + 527 DR_(97) + 528 DR_(98) + 
528 DR_(99) + 530 DR_(100) + 530 DR_(101) + 529 DR_(102) + 529 DR_(103) + 528 DR_(104) + 
528 DR_(105) + 531 DR_(106) + 531 DR_(107) + 525 DR_(108) + 529 DR_(32) + 528 DR_(33) + 
531 DR_(34) + 525 DR_(35) + 530 DR_(36) + 524 DR_(37) + 525 DR_(38) + 526 DR_(39) + 
531 DR_(40) + 531 DR_(41) + 502 DR_(42) + 502 DR_(43) + 502 DR_(44) + 502 DR_(45) + 
502 DR_(46) + 1008 DR_(47) + 1006 DR_(48) + 501 DR_(49) + 501 DR_(50) + 501 DR_(51) + 
501 DR_(52) + 501 DR_(53) + 501 DR_(54) + 501 DR_(55) + 501 DR_(56) + 501 DR_(57) + 
501 DR_(58) + 501 DR_(59) + 501 DR_(60) + 501 DR_(61) + 501 DR_(62) + 501 DR_(63) + 
501 DR_(64) + 501 DR_(65) + 501 DR_(66) + 501 DR_(67) + 501 DR_(68) + 501 DR_(69) + 
501 DR_(70) + 524 DR_(145) + 527 DR_(146) + 527 DR_(147) + 526 DR_(148) + 526 DR_(149) + 
531 DR_(150) + 531 DR_(151) + 528 DR_(152) + 528 DR_(153) + 530 DR_(154) + 530 DR_(155) + 
525 DR_(156) + 525 DR_(157) + 530 DR_(158) + 530 DR_(159) + 525 DR_(160) + 525 DR_(161) + 
524 DR_(162) + 524 DR_(163) + 531 DR_(164) + 531 DR_(165) + 529 DR_(166) + 529 DR_(167) + 
1048 DR_(168) + 1048 DR_(169) + 1046 DR_(170) + 1046 DR_(171) + 1046 DR_(172) + 
1046 DR_(173) + 1048 DR_(174) + 1048 DR_(175) + 1050 DR_(176) + 1050 DR_(177) + 
1048 DR_(178) + 1048 DR_(179) + 1047 DR_(180) + 526 DR_(217) + 502 DR_(218) + 
502 DR_(219) + 501 DR_(220) + 501 DR_(221) + 501 DR_(222) + 501 DR_(223) + 501 DR_(224) + 
501 DR_(225) + 501 DR_(226) + 501 DR_(227) + 501 DR_(228) + 501 DR_(229) + 502 DR_(230) + 
525 DR_(109) + 530 DR_(110) + 530 DR_(111) + 524 DR_(112) + 524 DR_(113) + 525 DR_(114) + 
525 DR_(115) + 526 DR_(116) + 526 DR_(117) + 531 DR_(118) + 531 DR_(119) + 531 DR_(120) + 
531 DR_(121) + 502 DR_(122) + 502 DR_(123) + 502 DR_(124) + 502 DR_(125) + 502 DR_(126) + 
502 DR_(127) + 502 DR_(128) + 502 DR_(129) + 502 DR_(130) + 502 DR_(131) + 1008 DR_(132) + 
1008 DR_(133) + 1034 DR_(134) + 1034 DR_(135) + 1006 DR_(136) + 1006 DR_(137) + 
532 DR_(138) + 532 DR_(139) + 528 DR_(140) + 528 DR_(141) + 531 DR_(142) + 531 DR_(143) + 
524 DR_(144)

Subject To
subJob_167: DR_(202) = 1
subJob_166: DR_(203) = 1
subJob_165: DR_(23) + DR_(201) = 1
subJob_164: DR_(22) + DR_(204) = 1
subJob_163: DR_(13) + DR_(204) = 1
subJob_162: DR_(203) = 1
subJob_161: DR_(24) + DR_(205) = 1
subJob_160: DR_(202) = 1
subJob_159: DR_(13) + DR_(204) = 1
subJob_158: DR_(10) + DR_(204) + DR_(78) + DR_(79) + DR_(174) + DR_(175) = 1
subJob_157: DR_(16) + DR_(202) = 1
subJob_156: DR_(12) + DR_(203) = 1
subJob_155: DR_(202) = 1
subJob_154: DR_(23) + DR_(201) = 1
subJob_153: DR_(201) = 1
subJob_152: DR_(18) + DR_(203) = 1
subJob_151: DR_(15) + DR_(202) = 1
subJob_150: DR_(201) = 1
subJob_149: DR_(211) = 1
subJob_148: DR_(201) = 1
subJob_147: DR_(202) = 1
subJob_146: DR_(26) + DR_(194) + DR_(195) + DR_(196) + DR_(197) + DR_(213) + 
DR_(88) + DR_(89) + DR_(90) + DR_(91) + DR_(48) + DR_(70) + DR_(134) + DR_(135) + 
DR_(136) + DR_(137) = 1
subJob_145: DR_(202) = 1
subJob_144: DR_(25) + DR_(186) + DR_(187) + DR_(202) + DR_(86) + DR_(87) + DR_(66) = 1
subJob_143: DR_(202) = 1
subJob_142: DR_(26) + DR_(194) + DR_(195) + DR_(196) + DR_(197) + DR_(213) + 
DR_(88) + DR_(89) + DR_(90) + DR_(91) + DR_(48) + DR_(134) + DR_(135) + DR_(136) + 
DR_(137) = 1
subJob_141: DR_(202) = 1
subJob_140: DR_(200) = 1
subJob_139: DR_(184) + DR_(185) + DR_(204) + DR_(46) + DR_(65) + DR_(130) + 
DR_(131) = 1
subJob_138: DR_(200) = 1
subJob_137: DR_(201) = 1
subJob_136: DR_(9) + DR_(200) = 1
subJob_135: DR_(202) = 1
subJob_134: DR_(200) = 1
subJob_133: DR_(219) = 1
subJob_132: DR_(201) = 1
subJob_131: DR_(230) = 1
subJob_130: DR_(206) = 1
subJob_129: DR_(218) = 1
subJob_128: DR_(201) = 1
subJob_127: DR_(27) + DR_(28) + DR_(29) + DR_(30) + DR_(31) + DR_(92) + DR_(93) + 
DR_(94) + DR_(95) + DR_(96) + DR_(97) + DR_(98) + DR_(99) + DR_(100) + DR_(101) + 
DR_(102) + DR_(103) + DR_(104) + DR_(105) + DR_(106) + DR_(107) + DR_(108) + 
DR_(32) + DR_(33) + DR_(34) + DR_(35) + DR_(36) + DR_(37) + DR_(38) + DR_(39) + 
DR_(40) + DR_(41) + DR_(145) + DR_(146) + DR_(147) + DR_(148) + DR_(149) + DR_(150) + 
DR_(151) + DR_(152) + DR_(153) + DR_(154) + DR_(155) + DR_(156) + DR_(157) + 
DR_(158) + DR_(159) + DR_(160) + DR_(161) + DR_(162) + DR_(163) + DR_(164) + 
DR_(165) + DR_(166) + DR_(167) + DR_(219) + DR_(109) + DR_(110) + DR_(111) + 
DR_(112) + DR_(113) + DR_(114) + DR_(115) + DR_(116) + DR_(117) + DR_(118) + 
DR_(119) + DR_(120) + DR_(121) + DR_(138) + DR_(139) + DR_(140) + DR_(141) + 
DR_(142) + DR_(143) + DR_(144) = 1
subJob_126: DR_(27) + DR_(28) + DR_(29) + DR_(30) + DR_(31) + DR_(92) + DR_(93) + 
DR_(94) + DR_(95) + DR_(96) + DR_(97) + DR_(98) + DR_(99) + DR_(100) + DR_(101) + 
DR_(102) + DR_(103) + DR_(104) + DR_(105) + DR_(106) + DR_(107) + DR_(108) + 
DR_(32) + DR_(33) + DR_(34) + DR_(35) + DR_(36) + DR_(37) + DR_(38) + DR_(39) + 
DR_(40) + DR_(41) + DR_(145) + DR_(146) + DR_(147) + DR_(148) + DR_(149) + DR_(150) + 
DR_(151) + DR_(152) + DR_(153) + DR_(154) + DR_(155) + DR_(156) + DR_(157) + 
DR_(158) + DR_(159) + DR_(160) + DR_(161) + DR_(162) + DR_(163) + DR_(164) + 
DR_(165) + DR_(166) + DR_(167) + DR_(230) + DR_(109) + DR_(110) + DR_(111) + 
DR_(112) + DR_(113) + DR_(114) + DR_(115) + DR_(116) + DR_(117) + DR_(118) + 
DR_(119) + DR_(120) + DR_(121) + DR_(138) + DR_(139) + DR_(140) + DR_(141) + 
DR_(142) + DR_(143) + DR_(144) = 1
subJob_125: DR_(27) + DR_(28) + DR_(29) + DR_(30) + DR_(31) + DR_(92) + DR_(93) + 
DR_(94) + DR_(95) + DR_(96) + DR_(97) + DR_(98) + DR_(99) + DR_(100) + DR_(101) + 
DR_(102) + DR_(103) + DR_(104) + DR_(105) + DR_(106) + DR_(107) + DR_(108) + 
DR_(32) + DR_(33) + DR_(34) + DR_(35) + DR_(36) + DR_(37) + DR_(38) + DR_(39) + 
DR_(40) + DR_(41) + DR_(145) + DR_(146) + DR_(147) + DR_(148) + DR_(149) + DR_(150) + 
DR_(151) + DR_(152) + DR_(153) + DR_(154) + DR_(155) + DR_(156) + DR_(157) + 
DR_(158) + DR_(159) + DR_(160) + DR_(161) + DR_(162) + DR_(163) + DR_(164) + 
DR_(165) + DR_(166) + DR_(167) + DR_(217) + DR_(109) + DR_(110) + DR_(111) + 
DR_(112) + DR_(113) + DR_(114) + DR_(115) + DR_(116) + DR_(117) + DR_(118) + 
DR_(119) + DR_(120) + DR_(121) + DR_(138) + DR_(139) + DR_(140) + DR_(141) + 
DR_(142) + DR_(143) + DR_(144) = 1
subJob_124: DR_(27) + DR_(28) + DR_(29) + DR_(30) + DR_(31) + DR_(92) + DR_(93) + 
DR_(94) + DR_(95) + DR_(96) + DR_(97) + DR_(98) + DR_(99) + DR_(100) + DR_(101) + 
DR_(102) + DR_(103) + DR_(104) + DR_(105) + DR_(106) + DR_(107) + DR_(108) + 
DR_(32) + DR_(33) + DR_(34) + DR_(35) + DR_(36) + DR_(37) + DR_(38) + DR_(39) + 
DR_(40) + DR_(41) + DR_(145) + DR_(146) + DR_(147) + DR_(148) + DR_(149) + DR_(150) + 
DR_(151) + DR_(152) + DR_(153) + DR_(154) + DR_(155) + DR_(156) + DR_(157) + 
DR_(158) + DR_(159) + DR_(160) + DR_(161) + DR_(162) + DR_(163) + DR_(164) + 
DR_(165) + DR_(166) + DR_(167) + DR_(218) + DR_(109) + DR_(110) + DR_(111) + 
DR_(112) + DR_(113) + DR_(114) + DR_(115) + DR_(116) + DR_(117) + DR_(118) + 
DR_(119) + DR_(120) + DR_(121) + DR_(138) + DR_(139) + DR_(140) + DR_(141) + 
DR_(142) + DR_(143) + DR_(144) = 1
subJob_123: DR_(198) + DR_(199) + DR_(203) + DR_(71) + DR_(45) + DR_(128) + 
DR_(129) = 1
subJob_122: DR_(19) + DR_(203) + DR_(82) + DR_(83) + DR_(178) + DR_(179) = 1
subJob_121: DR_(192) + DR_(193) + DR_(207) + DR_(44) + DR_(69) + DR_(126) + 
DR_(127) = 1
subJob_120: DR_(16) + DR_(202) = 1
subJob_119: DR_(215) + DR_(108) + DR_(35) + DR_(58) + DR_(156) + DR_(157) + 
DR_(109) = 1
subJob_118: DR_(14) + DR_(202) = 1
subJob_117: DR_(212) = 1
subJob_116: DR_(190) + DR_(191) + DR_(205) + DR_(43) + DR_(68) + DR_(124) + 
DR_(125) = 1
subJob_115: DR_(12) + DR_(203) = 1
subJob_114: DR_(206) = 1
subJob_113: DR_(203) = 1
subJob_112: DR_(188) + DR_(189) + DR_(42) + DR_(67) + DR_(229) + DR_(122) + 
DR_(123) = 1
subJob_111: DR_(198) + DR_(199) + DR_(45) + DR_(217) + DR_(128) + DR_(129) = 1
subJob_110: DR_(192) + DR_(193) + DR_(44) + DR_(217) + DR_(126) + DR_(127) = 1
subJob_109: DR_(0) + DR_(1) + DR_(2) + DR_(3) + DR_(6) + DR_(8) + DR_(9) + DR_(12) + 
DR_(13) + DR_(14) + DR_(15) + DR_(16) + DR_(17) + DR_(18) + DR_(20) + DR_(22) + 
DR_(23) + DR_(24) + DR_(200) = 1
subJob_108: DR_(205) + DR_(108) + DR_(35) + DR_(156) + DR_(157) + DR_(109) = 1
subJob_107: DR_(0) + DR_(1) + DR_(2) + DR_(3) + DR_(4) + DR_(5) + DR_(6) + DR_(7) + 
DR_(8) + DR_(9) + DR_(10) + DR_(11) + DR_(12) + DR_(13) + DR_(14) + DR_(15) + 
DR_(16) + DR_(17) + DR_(18) + DR_(19) + DR_(20) + DR_(21) + DR_(22) + DR_(23) + 
DR_(24) + DR_(181) + DR_(201) + DR_(72) + DR_(73) + DR_(74) + DR_(75) + DR_(76) + 
DR_(77) + DR_(78) + DR_(79) + DR_(80) + DR_(81) + DR_(82) + DR_(83) + DR_(84) + 
DR_(85) + DR_(168) + DR_(169) + DR_(170) + DR_(171) + DR_(172) + DR_(173) + 
DR_(174) + DR_(175) + DR_(176) + DR_(177) + DR_(178) + DR_(179) + DR_(180) = 1
subJob_106: DR_(190) + DR_(191) + DR_(205) + DR_(43) + DR_(124) + DR_(125) = 1
subJob_105: DR_(0) + DR_(1) + DR_(2) + DR_(3) + DR_(4) + DR_(5) + DR_(6) + DR_(7) + 
DR_(8) + DR_(9) + DR_(10) + DR_(11) + DR_(12) + DR_(13) + DR_(14) + DR_(15) + 
DR_(16) + DR_(17) + DR_(18) + DR_(19) + DR_(20) + DR_(21) + DR_(22) + DR_(23) + 
DR_(24) + DR_(181) + DR_(202) + DR_(72) + DR_(73) + DR_(74) + DR_(75) + DR_(76) + 
DR_(77) + DR_(78) + DR_(79) + DR_(80) + DR_(81) + DR_(82) + DR_(83) + DR_(84) + 
DR_(85) + DR_(168) + DR_(169) + DR_(170) + DR_(171) + DR_(172) + DR_(173) + 
DR_(174) + DR_(175) + DR_(176) + DR_(177) + DR_(178) + DR_(179) + DR_(180) = 1
subJob_104: DR_(188) + DR_(189) + DR_(42) + DR_(217) + DR_(122) + DR_(123) = 1
subJob_103: DR_(8) + DR_(200) = 1
subJob_102: DR_(209) + DR_(41) + DR_(62) + DR_(164) + DR_(165) + DR_(120) + 
DR_(121) = 1
subJob_101: DR_(208) + DR_(40) + DR_(55) + DR_(150) + DR_(151) + DR_(118) + 
DR_(119) = 1
subJob_100: DR_(31) + DR_(100) + DR_(101) + DR_(57) + DR_(154) + DR_(155) + 
DR_(217) = 1
subJob_99: DR_(37) + DR_(61) + DR_(162) + DR_(163) + DR_(227) + DR_(112) + DR_(113) = 1
subJob_98: DR_(200) = 1
subJob_97: DR_(30) + DR_(98) + DR_(99) + DR_(56) + DR_(152) + DR_(153) + DR_(226) = 1
subJob_96: DR_(29) + DR_(96) + DR_(97) + DR_(53) + DR_(146) + DR_(147) + DR_(223) = 1
subJob_95: DR_(0) + DR_(1) + DR_(2) + DR_(3) + DR_(4) + DR_(6) + DR_(8) + DR_(9) + 
DR_(12) + DR_(13) + DR_(14) + DR_(15) + DR_(16) + DR_(17) + DR_(18) + DR_(20) + 
DR_(22) + DR_(23) + DR_(24) + DR_(205) + DR_(72) + DR_(73) + DR_(168) + DR_(169) = 1
subJob_94: DR_(200) = 1
subJob_93: DR_(28) + DR_(94) + DR_(95) + DR_(49) + DR_(220) + DR_(138) + DR_(139) = 1
subJob_92: DR_(3) + DR_(201) = 1
subJob_91: DR_(27) + DR_(92) + DR_(93) + DR_(52) + DR_(145) + DR_(222) + DR_(144) = 1
subJob_90: DR_(228) = 1
subJob_89: DR_(0) + DR_(1) + DR_(2) + DR_(3) + DR_(4) + DR_(5) + DR_(6) + DR_(7) + 
DR_(8) + DR_(9) + DR_(10) + DR_(11) + DR_(12) + DR_(13) + DR_(14) + DR_(15) + 
DR_(16) + DR_(18) + DR_(19) + DR_(20) + DR_(21) + DR_(22) + DR_(24) + DR_(181) + 
DR_(182) + DR_(183) + DR_(210) + DR_(72) + DR_(73) + DR_(74) + DR_(75) + DR_(76) + 
DR_(77) + DR_(78) + DR_(79) + DR_(80) + DR_(81) + DR_(82) + DR_(83) + DR_(84) + 
DR_(85) + DR_(47) + DR_(64) + DR_(168) + DR_(169) + DR_(170) + DR_(171) + DR_(172) + 
DR_(173) + DR_(174) + DR_(175) + DR_(176) + DR_(177) + DR_(178) + DR_(179) + 
DR_(180) + DR_(132) + DR_(133) = 1
subJob_88: DR_(202) = 1
subJob_87: DR_(31) + DR_(100) + DR_(101) + DR_(154) + DR_(155) + DR_(217) = 1
subJob_86: DR_(203) = 1
subJob_85: DR_(30) + DR_(207) + DR_(98) + DR_(99) + DR_(152) + DR_(153) = 1
subJob_84: DR_(29) + DR_(207) + DR_(96) + DR_(97) + DR_(146) + DR_(147) = 1
subJob_83: DR_(28) + DR_(207) + DR_(94) + DR_(95) + DR_(138) + DR_(139) = 1
subJob_82: DR_(27) + DR_(207) + DR_(92) + DR_(93) + DR_(145) + DR_(144) = 1
subJob_81: DR_(25) + DR_(26) + DR_(186) + DR_(187) + DR_(194) + DR_(195) + DR_(206) + 
DR_(86) + DR_(87) + DR_(88) + DR_(89) + DR_(90) + DR_(91) + DR_(134) + DR_(135) = 1
subJob_80: DR_(0) + DR_(1) + DR_(2) + DR_(3) + DR_(4) + DR_(5) + DR_(6) + DR_(7) + 
DR_(8) + DR_(9) + DR_(10) + DR_(11) + DR_(12) + DR_(13) + DR_(14) + DR_(15) + 
DR_(16) + DR_(17) + DR_(18) + DR_(19) + DR_(20) + DR_(21) + DR_(22) + DR_(23) + 
DR_(24) + DR_(181) + DR_(201) + DR_(72) + DR_(73) + DR_(74) + DR_(75) + DR_(76) + 
DR_(77) + DR_(78) + DR_(79) + DR_(80) + DR_(81) + DR_(82) + DR_(83) + DR_(84) + 
DR_(85) + DR_(168) + DR_(169) + DR_(170) + DR_(171) + DR_(172) + DR_(173) + 
DR_(174) + DR_(175) + DR_(176) + DR_(177) + DR_(178) + DR_(179) + DR_(180) = 1
subJob_79: DR_(22) + DR_(204) = 1
subJob_78: DR_(39) + DR_(54) + DR_(148) + DR_(149) + DR_(221) + DR_(116) + DR_(117) = 1
subJob_77: DR_(38) + DR_(60) + DR_(160) + DR_(161) + DR_(225) + DR_(114) + DR_(115) = 1
subJob_76: DR_(21) + DR_(181) + DR_(202) + DR_(84) + DR_(85) + DR_(180) = 1
subJob_75: DR_(203) + DR_(41) + DR_(164) + DR_(165) + DR_(120) + DR_(121) = 1
subJob_74: DR_(36) + DR_(59) + DR_(158) + DR_(159) + DR_(224) + DR_(110) + DR_(111) = 1
subJob_73: DR_(202) + DR_(40) + DR_(150) + DR_(151) + DR_(118) + DR_(119) = 1
subJob_72: DR_(25) + DR_(182) + DR_(183) + DR_(186) + DR_(187) + DR_(204) + 
DR_(86) + DR_(87) + DR_(47) + DR_(132) + DR_(133) = 1
subJob_71: DR_(17) + DR_(200) = 1
subJob_70: DR_(25) + DR_(26) + DR_(186) + DR_(187) + DR_(194) + DR_(195) + DR_(200) + 
DR_(86) + DR_(87) + DR_(88) + DR_(89) + DR_(90) + DR_(91) + DR_(134) + DR_(135) = 1
subJob_69: DR_(214) + DR_(106) + DR_(107) + DR_(34) + DR_(51) + DR_(142) + DR_(143) = 1
subJob_68: DR_(25) + DR_(26) + DR_(186) + DR_(187) + DR_(194) + DR_(195) + DR_(202) + 
DR_(86) + DR_(87) + DR_(88) + DR_(89) + DR_(90) + DR_(91) + DR_(134) + DR_(135) = 1
subJob_67: DR_(15) + DR_(202) = 1
subJob_66: DR_(207) + DR_(104) + DR_(105) + DR_(33) + DR_(50) + DR_(140) + DR_(141) = 1
subJob_65: DR_(4) + DR_(5) + DR_(7) + DR_(10) + DR_(11) + DR_(19) + DR_(21) + 
DR_(25) + DR_(26) + DR_(181) + DR_(186) + DR_(187) + DR_(194) + DR_(195) + DR_(200) + 
DR_(72) + DR_(73) + DR_(74) + DR_(75) + DR_(76) + DR_(77) + DR_(78) + DR_(79) + 
DR_(80) + DR_(81) + DR_(82) + DR_(83) + DR_(84) + DR_(85) + DR_(86) + DR_(87) + 
DR_(88) + DR_(89) + DR_(90) + DR_(91) + DR_(168) + DR_(169) + DR_(170) + DR_(171) + 
DR_(172) + DR_(173) + DR_(174) + DR_(175) + DR_(176) + DR_(177) + DR_(178) + 
DR_(179) + DR_(180) + DR_(134) + DR_(135) = 1
subJob_64: DR_(216) + DR_(102) + DR_(103) + DR_(32) + DR_(63) + DR_(166) + DR_(167) = 1
subJob_63: DR_(26) + DR_(194) + DR_(195) + DR_(201) + DR_(88) + DR_(89) + DR_(90) + 
DR_(91) + DR_(134) + DR_(135) = 1
subJob_62: DR_(184) + DR_(185) + DR_(204) + DR_(46) + DR_(130) + DR_(131) = 1
subJob_61: DR_(206) + DR_(39) + DR_(148) + DR_(149) + DR_(116) + DR_(117) = 1
subJob_60: DR_(203) = 1
subJob_59: DR_(206) + DR_(38) + DR_(160) + DR_(161) + DR_(114) + DR_(115) = 1
subJob_58: DR_(201) = 1
subJob_57: DR_(204) + DR_(37) + DR_(162) + DR_(163) + DR_(112) + DR_(113) = 1
subJob_56: DR_(205) + DR_(36) + DR_(158) + DR_(159) + DR_(110) + DR_(111) = 1
subJob_55: DR_(25) + DR_(186) + DR_(187) + DR_(202) + DR_(86) + DR_(87) = 1
subJob_54: DR_(10) + DR_(204) + DR_(78) + DR_(79) + DR_(174) + DR_(175) = 1
subJob_53: DR_(201) = 1
subJob_52: DR_(205) + DR_(106) + DR_(107) + DR_(34) + DR_(142) + DR_(143) = 1
subJob_51: DR_(203) + DR_(104) + DR_(105) + DR_(33) + DR_(140) + DR_(141) = 1
subJob_50: DR_(204) + DR_(102) + DR_(103) + DR_(32) + DR_(166) + DR_(167) = 1
subJob_49: DR_(7) + DR_(206) + DR_(76) + DR_(77) + DR_(172) + DR_(173) = 1
subJob_48: DR_(6) + DR_(206) = 1
subJob_47: DR_(5) + DR_(200) + DR_(74) + DR_(75) + DR_(170) + DR_(171) = 1
subJob_46: DR_(2) + DR_(17) + DR_(23) + DR_(200) = 1
subJob_45: DR_(201) = 1
subJob_44: DR_(202) = 1
subJob_43: DR_(200) = 1
subJob_42: DR_(24) + DR_(205) = 1
subJob_41: DR_(20) + DR_(201) = 1
subJob_40: DR_(18) + DR_(203) = 1
subJob_39: DR_(203) = 1
subJob_38: DR_(19) + DR_(203) + DR_(82) + DR_(83) + DR_(178) + DR_(179) = 1
subJob_37: DR_(11) + DR_(201) + DR_(80) + DR_(81) + DR_(176) + DR_(177) = 1
subJob_36: DR_(200) = 1
subJob_35: DR_(21) + DR_(181) + DR_(202) + DR_(84) + DR_(85) + DR_(180) = 1
subJob_34: DR_(11) + DR_(201) + DR_(80) + DR_(81) + DR_(176) + DR_(177) = 1
subJob_33: DR_(202) = 1
subJob_32: DR_(17) + DR_(200) = 1
subJob_31: DR_(14) + DR_(202) = 1
subJob_30: DR_(20) + DR_(201) = 1
subJob_29: DR_(203) = 1
subJob_28: DR_(203) = 1
subJob_27: DR_(202) = 1
subJob_26: DR_(200) = 1
subJob_25: DR_(200) = 1
subJob_24: DR_(200) = 1
subJob_23: DR_(3) + DR_(201) = 1
subJob_22: DR_(9) + DR_(200) = 1
subJob_21: DR_(0) + DR_(1) + DR_(2) + DR_(3) + DR_(6) + DR_(9) + DR_(12) + DR_(13) + 
DR_(14) + DR_(15) + DR_(17) + DR_(18) + DR_(20) + DR_(22) + DR_(23) + DR_(24) + 
DR_(201) = 1
subJob_20: DR_(203) = 1
subJob_19: DR_(5) + DR_(200) + DR_(74) + DR_(75) + DR_(170) + DR_(171) = 1
subJob_18: DR_(200) = 1
subJob_17: DR_(2) + DR_(17) + DR_(23) + DR_(200) = 1
subJob_16: DR_(202) = 1
subJob_15: DR_(8) + DR_(200) = 1
subJob_14: DR_(202) = 1
subJob_13: DR_(1) + DR_(2) + DR_(3) + DR_(14) + DR_(17) + DR_(18) + DR_(22) + 
DR_(23) + DR_(207) = 1
subJob_12: DR_(7) + DR_(206) + DR_(76) + DR_(77) + DR_(172) + DR_(173) = 1
subJob_11: DR_(1) + DR_(2) + DR_(3) + DR_(14) + DR_(17) + DR_(18) + DR_(22) + 
DR_(23) + DR_(207) = 1
subJob_10: DR_(6) + DR_(206) = 1
subJob_9: DR_(0) + DR_(1) + DR_(2) + DR_(3) + DR_(4) + DR_(6) + DR_(8) + DR_(9) + 
DR_(12) + DR_(13) + DR_(14) + DR_(15) + DR_(16) + DR_(17) + DR_(18) + DR_(20) + 
DR_(22) + DR_(23) + DR_(24) + DR_(205) + DR_(72) + DR_(73) + DR_(168) + DR_(169) = 1
subJob_8: DR_(0) + DR_(1) + DR_(2) + DR_(3) + DR_(6) + DR_(9) + DR_(12) + DR_(13) + 
DR_(14) + DR_(15) + DR_(17) + DR_(18) + DR_(20) + DR_(22) + DR_(23) + DR_(24) + 
DR_(201) = 1
subJob_7: DR_(200) = 1
subJob_6: DR_(201) = 1
subJob_5: DR_(203) = 1
subJob_4: DR_(202) = 1
subJob_3: DR_(201) = 1
subJob_2: DR_(202) = 1
subJob_1: DR_(201) = 1
subJob: DR_(203) = 1

Bounds

Binaries
DR_(0) DR_(1) DR_(2) DR_(3) DR_(4) DR_(5) DR_(6) DR_(7) DR_(8) DR_(9) DR_(10) 
DR_(11) DR_(12) DR_(13) DR_(14) DR_(15) DR_(16) DR_(17) DR_(18) DR_(19) DR_(20) 
DR_(21) DR_(22) DR_(23) DR_(24) DR_(25) DR_(26) DR_(27) DR_(28) DR_(29) DR_(30) 
DR_(31) DR_(32) DR_(33) DR_(34) DR_(35) DR_(36) DR_(37) DR_(38) DR_(39) DR_(40) 
DR_(41) DR_(42) DR_(43) DR_(44) DR_(45) DR_(46) DR_(47) DR_(48) DR_(49) DR_(50) 
DR_(51) DR_(52) DR_(53) DR_(54) DR_(55) DR_(56) DR_(57) DR_(58) DR_(59) DR_(60) 
DR_(61) DR_(62) DR_(63) DR_(64) DR_(65) DR_(66) DR_(67) DR_(68) DR_(69) DR_(70) 
DR_(71) DR_(72) DR_(73) DR_(74) DR_(75) DR_(76) DR_(77) DR_(78) DR_(79) DR_(80) 
DR_(81) DR_(82) DR_(83) DR_(84) DR_(85) DR_(86) DR_(87) DR_(88) DR_(89) DR_(90) 
DR_(91) DR_(92) DR_(93) DR_(94) DR_(95) DR_(96) DR_(97) DR_(98) DR_(99) DR_(100) 
DR_(101) DR_(102) DR_(103) DR_(104) DR_(105) DR_(106) DR_(107) DR_(108) DR_(109) 
DR_(110) DR_(111) DR_(112) DR_(113) DR_(114) DR_(115) DR_(116) DR_(117) DR_(118) 
DR_(119) DR_(120) DR_(121) DR_(122) DR_(123) DR_(124) DR_(125) DR_(126) DR_(127) 
DR_(128) DR_(129) DR_(130) DR_(131) DR_(132) DR_(133) DR_(134) DR_(135) DR_(136) 
DR_(137) DR_(138) DR_(139) DR_(140) DR_(141) DR_(142) DR_(143) DR_(144) DR_(145) 
DR_(146) DR_(147) DR_(148) DR_(149) DR_(150) DR_(151) DR_(152) DR_(153) DR_(154) 
DR_(155) DR_(156) DR_(157) DR_(158) DR_(159) DR_(160) DR_(161) DR_(162) DR_(163) 
DR_(164) DR_(165) DR_(166) DR_(167) DR_(168) DR_(169) DR_(170) DR_(171) DR_(172) 
DR_(173) DR_(174) DR_(175) DR_(176) DR_(177) DR_(178) DR_(179) DR_(180) DR_(181) 
DR_(182) DR_(183) DR_(184) DR_(185) DR_(186) DR_(187) DR_(188) DR_(189) DR_(190) 
DR_(191) DR_(192) DR_(193) DR_(194) DR_(195) DR_(196) DR_(197) DR_(198) DR_(199) 
DR_(200) DR_(201) DR_(202) DR_(203) DR_(204) DR_(205) DR_(206) DR_(207) DR_(208) 
DR_(209) DR_(210) DR_(211) DR_(212) DR_(213) DR_(214) DR_(215) DR_(216) DR_(217) 
DR_(218) DR_(219) DR_(220) DR_(221) DR_(222) DR_(223) DR_(224) DR_(225) DR_(226) 
DR_(227) DR_(228) DR_(229) DR_(230) 

End
